Academic license - for non-commercial use only
Gurobi Optimizer version 9.0.3 build v9.0.3rc0 (mac64)
Optimize a model with 207966 rows, 200800 columns and 1151950 nonzeros
Model fingerprint: 0x708c693e
Variable types: 0 continuous, 200800 integer (200800 binary)
Coefficient statistics:
  Matrix range     [1e+00, 1e+00]
  Objective range  [1e+01, 5e+04]
  Bounds range     [1e+00, 1e+00]
  RHS range        [1e+00, 5e+02]
Presolve added 0 rows and 2950 columns
Presolve removed 50 rows and 0 columns
Presolve time: 3.68s
Presolved: 207916 rows, 203750 columns, 860850 nonzeros
Variable types: 0 continuous, 203750 integer (203750 binary)
Found heuristic solution: objective 349364.00000

Concurrent LP optimizer: dual simplex and barrier
Showing barrier log only...

Root barrier log...

Ordering time: 0.06s

Barrier statistics:
 Dense cols : 400
 AA' NZ     : 6.668e+05
 Factor NZ  : 2.815e+06 (roughly 200 MBytes of memory)
 Factor Ops : 6.809e+08 (less than 1 second per iteration)
 Threads    : 3

                  Objective                Residual
Iter       Primal          Dual         Primal    Dual     Compl     Time
   0   1.96516205e+08 -2.79536196e+08  4.35e+02 2.92e+01  1.47e+04     7s
   1   1.16774059e+06 -2.60335398e+08  7.79e+00 1.11e+04  5.33e+02     7s
   2   5.00553032e+05 -1.52460923e+07  1.25e+00 9.13e+02  3.35e+01     7s
   3   3.81548509e+05 -1.38244612e+06  1.06e-01 5.27e+01  3.00e+00     7s
   4   3.52430599e+05  2.21147888e+04  1.66e-02 8.78e+00  5.40e-01     8s
   5   3.39160587e+05  1.79872528e+05  1.24e-02 3.12e+00  2.59e-01     8s
   6   3.31680146e+05  2.18291103e+05  1.09e-02 1.77e+00  1.84e-01     8s
   7   3.25673854e+05  2.32650967e+05  9.73e-03 1.26e+00  1.51e-01     8s
   8   3.17848402e+05  2.42543119e+05  8.25e-03 8.97e-01  1.22e-01     9s
   9   3.11224732e+05  2.47877682e+05  7.15e-03 7.03e-01  1.03e-01     9s
  10   3.04540872e+05  2.52831572e+05  6.12e-03 5.31e-01  8.38e-02     9s
  11   2.96779899e+05  2.58235101e+05  5.02e-03 3.31e-01  6.24e-02     9s
  12   2.93419340e+05  2.61133111e+05  4.46e-03 2.20e-01  5.22e-02    10s
  13   2.89320142e+05  2.62875868e+05  3.87e-03 1.50e-01  4.27e-02    10s
  14   2.86601475e+05  2.63874515e+05  3.49e-03 1.12e-01  3.67e-02    10s
  15   2.83537242e+05  2.64732682e+05  3.00e-03 7.80e-02  3.04e-02    11s
  16   2.80754172e+05  2.65294140e+05  2.56e-03 5.79e-02  2.50e-02    11s
  17   2.77798530e+05  2.65722701e+05  2.10e-03 4.41e-02  1.95e-02    11s
  18   2.76531815e+05  2.65998031e+05  1.85e-03 3.55e-02  1.70e-02    11s
  19   2.74879310e+05  2.66292102e+05  1.54e-03 2.67e-02  1.38e-02    12s
  20   2.73706038e+05  2.66465925e+05  1.32e-03 2.16e-02  1.17e-02    12s
  21   2.72840435e+05  2.66604672e+05  1.14e-03 1.77e-02  1.01e-02    12s
  22   2.71858384e+05  2.66742694e+05  9.57e-04 1.38e-02  8.24e-03    12s
  23   2.70874320e+05  2.66827531e+05  7.70e-04 1.14e-02  6.52e-03    13s
  24   2.70697931e+05  2.66883856e+05  7.31e-04 9.95e-03  6.14e-03    13s
  25   2.69917613e+05  2.66983497e+05  5.76e-04 7.41e-03  4.72e-03    13s
  26   2.69602459e+05  2.67012827e+05  5.13e-04 6.66e-03  4.17e-03    13s
  27   2.69198483e+05  2.67056823e+05  4.33e-04 5.70e-03  3.45e-03    14s
  28   2.68853154e+05  2.67117577e+05  3.61e-04 4.33e-03  2.79e-03    14s
  29   2.68655428e+05  2.67168855e+05  3.18e-04 3.14e-03  2.39e-03    14s
  30   2.68562214e+05  2.67195721e+05  2.99e-04 2.56e-03  2.20e-03    14s
  31   2.68341877e+05  2.67210933e+05  2.50e-04 2.15e-03  1.82e-03    15s
  32   2.68232741e+05  2.67214423e+05  2.26e-04 2.05e-03  1.64e-03    15s
  33   2.68076289e+05  2.67241883e+05  1.90e-04 1.47e-03  1.34e-03    15s
  34   2.67935025e+05  2.67252512e+05  1.57e-04 1.17e-03  1.10e-03    15s
  35   2.67882932e+05  2.67261627e+05  1.45e-04 9.73e-04  9.98e-04    16s
  36   2.67796370e+05  2.67267113e+05  1.23e-04 8.30e-04  8.50e-04    16s
  37   2.67775026e+05  2.67268907e+05  1.19e-04 7.95e-04  8.13e-04    16s
  38   2.67694174e+05  2.67276301e+05  1.00e-04 6.29e-04  6.71e-04    16s
  39   2.67599571e+05  2.67283251e+05  7.81e-05 4.65e-04  5.07e-04    16s
  40   2.67565867e+05  2.67289093e+05  7.04e-05 3.55e-04  4.44e-04    17s
  41   2.67510021e+05  2.67291951e+05  5.68e-05 2.94e-04  3.49e-04    17s
  42   2.67458519e+05  2.67296976e+05  4.26e-05 2.05e-04  2.59e-04    17s
  43   2.67430764e+05  2.67299240e+05  3.60e-05 1.57e-04  2.11e-04    17s
  44   2.67406418e+05  2.67301339e+05  2.92e-05 1.15e-04  1.68e-04    18s
  45   2.67382079e+05  2.67302870e+05  2.22e-05 8.45e-05  1.27e-04    18s
  46   2.67364426e+05  2.67304516e+05  1.72e-05 5.95e-05  9.58e-05    18s
  47   2.67357216e+05  2.67305045e+05  1.50e-05 5.17e-05  8.34e-05    18s
  48   2.67347215e+05  2.67306007e+05  1.21e-05 3.45e-05  6.59e-05    19s
  49   2.67339836e+05  2.67306667e+05  9.80e-06 2.37e-05  5.30e-05    19s
  50   2.67332351e+05  2.67307062e+05  7.42e-06 1.75e-05  4.04e-05    19s
  51   2.67328690e+05  2.67307265e+05  6.43e-06 1.51e-05  3.42e-05    19s
  52   2.67325918e+05  2.67307482e+05  5.65e-06 1.20e-05  2.94e-05    19s
  53   2.67322339e+05  2.67307840e+05  4.52e-06 7.32e-06  2.31e-05    20s
  54   2.67318272e+05  2.67307919e+05  3.17e-06 6.37e-06  1.65e-05    20s
  55   2.67313998e+05  2.67308211e+05  1.74e-06 3.76e-06  9.25e-06    20s
  56   2.67311484e+05  2.67308387e+05  1.00e-06 1.68e-06  4.94e-06    20s
  57   2.67311159e+05  2.67308470e+05  9.01e-07 9.99e-07  4.28e-06    21s
  58   2.67310492e+05  2.67308505e+05  6.63e-07 6.94e-07  3.17e-06    21s
  59   2.67309833e+05  2.67308531e+05  4.29e-07 3.26e-07  2.08e-06    21s
  60   2.67309757e+05  2.67308545e+05  4.03e-07 2.48e-07  1.93e-06    21s
  61   2.67309581e+05  2.67308548e+05  3.42e-07 2.14e-07  1.65e-06    21s
  62   2.67309555e+05  2.67308554e+05  3.33e-07 1.88e-07  1.60e-06    21s
  63   2.67309487e+05  2.67308557e+05  3.13e-07 1.51e-07  1.48e-06    22s
  64   2.67309042e+05  2.67308571e+05  1.57e-07 8.98e-08  7.51e-07    22s
  65   2.67308623e+05  2.67308589e+05  1.07e-08 2.35e-08  5.46e-08    22s
  66   2.67308614e+05  2.67308589e+05  1.14e-08 1.54e-08  4.02e-08    22s
  67   2.67308614e+05  2.67308589e+05  1.14e-08 1.54e-08  4.01e-08    23s
  68   2.67308614e+05  2.67308589e+05  1.36e-08 1.53e-08  4.01e-08    23s
  69   2.67308614e+05  2.67308589e+05  1.82e-08 1.11e-09  4.01e-08    23s

Barrier solved model in 69 iterations and 23.09 seconds
Optimal objective 2.67308614e+05


Root crossover log...

   80904 DPushes remaining with DInf 0.0000000e+00                23s
      26 DPushes remaining with DInf 0.0000000e+00                25s
       0 DPushes remaining with DInf 0.0000000e+00                25s

    1216 PPushes remaining with PInf 4.6125472e-06                25s
       0 PPushes remaining with PInf 0.0000000e+00                25s

  Push phase complete: Pinf 0.0000000e+00, Dinf 1.1789005e-09     25s


Root simplex log...

Iteration    Objective       Primal Inf.    Dual Inf.      Time
   18323    2.6730859e+05   0.000000e+00   0.000000e+00     25s

Solved with barrier

Root relaxation: objective 2.673086e+05, 18323 iterations, 19.62 seconds

    Nodes    |    Current Node    |     Objective Bounds      |     Work
 Expl Unexpl |  Obj  Depth IntInf | Incumbent    BestBd   Gap | It/Node Time

     0     0 267308.591    0 23678 349364.000 267308.591  23.5%     -   27s
     0     0 267308.591    0 23678 349364.000 267308.591  23.5%     -   89s
     0     2 267308.889    0 23678 349364.000 267308.889  23.5%     -  127s
     1     3 267441.272    1 23328 349364.000 267308.889  23.5% 15739  300s

Explored 2 nodes (38314 simplex iterations) in 300.09 seconds
Thread count was 8 (of 8 available processors)

Solution count 1: 349364 

Time limit reached
Best objective 3.493640000000e+05, best bound 2.673090000000e+05, gap 23.4870%

User-callback calls 113419, time in user-callback 0.58 sec
Solution written to /Users/mdeboute/Desktop/Etudes/Master/M2/S9/GOPP/Projet/multi-period-flp/solution/instSingle_I50_J500_T8_1_result.txt
